p cnf 34 47
-1 22 31 -17 0 
-2 32 0 
-3 18 31 -17 0 
-4 -5 16 31 -17 0 
-6 -7 32 0 
-8 32 0 
-9 30 -8 32 0 
-4 32 0 
-10 19 -11 31 -17 0 
-12 32 0 
-13 -14 32 0 
-14 -8 32 0 
-15 -14 32 0 
-5 16 31 -17 0 
-16 5 33 -2 0 
-17 33 -2 0 
-18 3 -17 33 -2 0 
-17 -19 10 33 -2 0 
-19 10 -20 33 -2 0 
-15 32 0 
-10 19 31 -17 0 
-21 32 0 
-22 1 33 -2 0 
-19 10 -23 33 -2 0 
-6 -17 33 -2 0 
-6 -24 33 -2 0 
-19 10 33 -2 0 
-8 -22 1 -25 33 -2 0 
-26 33 -2 0 
-24 33 -2 0 
-13 -16 5 33 -2 0 
-27 -22 1 33 -2 0 
-14 34 -9 -30 0 
-6 32 0 
-28 32 0 
-13 32 0 
-4 -29 32 0 
-12 -10 19 31 -17 0 
-15 -12 32 0 
-14 32 0 
-8 -21 32 0 
-30 9 32 0 
-15 -13 32 0 
-12 -1 22 31 -17 0 
-5 16 -8 31 -17 0 
-13 -5 16 31 -17 0 
-13 -8 32 0 
